\ENCODING=ISO-8859-1
\Problem name: IloCplex

Minimize
 obj1: x1 + 36.799997 x2 + 1
Subject To
 c1:  x1 + 5 x2 <= 99999
 c2:  x1 + 9.6 x2 >= 14.7510078653425
 c3:  x1 + 14.6 x2 <= 99999
 c4:  x1 + 12.6 x2 >= 14.9510078653425
 c5:  x1 + 17.6 x2 <= 99999
 c6:  x1 + 15.172311 x2 >= 15.1224952653425
 c7:  x1 + 20.172311 x2 <= 99999
 c8:  x1 + 16.627686 x2 >= 15.2195202653425
 c9:  x1 + 21.627686 x2 <= 99999
 c10: x1 + 19.199997 x2 >= 15.3910076653425
 c11: x1 + 24.199997 x2 <= 99999
 c12: x1 + 22.199997 x2 >= 15.5910076653425
 c13: x1 + 27.199997 x2 <= 99999
 c14: x1 + 31.799997 x2 >= 16.2310076653425
 c15: x1 + 36.799997 x2 <= 99999
Bounds
 14.1110078653425 <= x1 <= 100000
 0.0666666666666667 <= x2 <= 0.333333333333333
End
